files/upTests/_zothers/tupley32-8-4/0001.eprime.solution
language ESSENCE' 1.0
$ minion Nodes: 1
$ minion TotalTime: 0.00038
$ Savile Row TotalTime: 0.147
letting pain_tuple2_Explicit_tuple1 be [[[12]]]
letting pain_tuple1 be [1]
letting pain_tuple2_Explicit_tuple2_tuple1 be [[14]]
letting pain_tuple2_Explicit_tuple2_tuple2 be [[15]]
